benchmarks_vrp/CMT5/min_c/CMT5_9.vrp
NAME: CMT5_9
TYPE: CVRP
COMMENT: 1291.29 - Cluster Nr.9
DIMENSION: 13
CAPACITY: 200
EDGE_WEIGHT_TYPE: EUC_2D
NODE_COORD_TYPE: TWOD_COORDS
NODE_COORD_SECTION: 
1 55 54
3 57 48
7 35 35
5 58 48
6 55 50
11 62 57
8 65 55
9 57 58
2 49 58
4 62 48
10 61 52
12 53 52
13 50 50
DEPOT_SECTION: 
7
-1
DEMAND_SECTION: 
8 14
11 31
10 3
13 15
2 10
9 28
7 0
3 23
4 15
12 11
6 10
5 6
1 26
EOF
