benchmarks_vrp/CMT5/min_c/CMT5_9.tour
NAME: CMT5_9 solution
TYPE: TOUR
TOUR_SECTION:
7 2 1 9 11 8 10 4 5 3 6 12 13 -1
-1
EOF